c A SAT instance generated from a 3-CNF formula that had 60 clauses and 10 variables
p cnf 10 60
-1 2 3 0
3 7 -1 0
7 10 -2 0
8 2 -9 0
10 8 -3 0
-8 9 -3 0
8 9 3 0
2 -8 -6 0
-6 5 10 0
-9 4 7 0
7 3 4 0
-10 3 -4 0
2 -4 10 0
3 7 -9 0
6 10 -4 0
1 -4 -5 0
-6 -9 3 0
6 7 -2 0
-2 4 1 0
-5 9 10 0
3 -1 -2 0
-9 10 5 0
-7 -9 -2 0
9 -3 8 0
-4 -5 6 0
7 -8 2 0
-4 9 -7 0
-10 5 2 0
9 -10 -7 0
3 6 -9 0
-9 6 -4 0
6 4 -9 0
-10 -3 -5 0
4 -2 -8 0
10 -6 -5 0
7 9 10 0
5 -6 -10 0
-4 -7 -10 0
3 -10 -4 0
5 7 9 0
-8 2 -4 0
-5 7 -3 0
2 -3 -1 0
1 7 -2 0
8 10 4 0
8 -3 -4 0
6 -4 -7 0
-1 -6 8 0
-8 -7 -6 0
4 8 2 0
10 -5 -4 0
-2 8 7 0
8 -6 -4 0
-8 -7 -9 0
-6 -2 -8 0
4 7 -5 0
-8 -1 9 0
7 1 -3 0
1 -3 -4 0
-3 -6 -1 0
%
0

35 66 1 83 54 64 57 18 50 33
